
 102   30
  10   10   10   10   10   10   10   10   10   10   10   10   10   10   10   10   10   10   10   10   10   10   10   10   10   10   10   10   10   10

   0   0   0   0   0   0   0   0   0   0   0   0   0   0   0   0   0   0   0   0   0   0   0   0   0   0   0   0   0   0   0  33 2 3 4 5 6 7 8 9 10 11 12 13 14 15 16 18 19 20 21 22 23 25 26 27 28 30 32 33 35 36 38 39 47 
   7   0   0   0   0   0   0   0   0   0   0   0   1   0   0   0   0   1   0   1   0   0   1   0   1   0   0   0   0   0   1  14 68 67 61 59 54 53 52 49 48 46 44 43 29 24 
   6   0   0   0   0   0   0   0   0   0   0   0   0   0   0   0   0   0   0   0   0   0   0   1   6   2   0   0   1   1   0  20 100 98 96 95 75 73 69 68 67 66 62 61 59 54 53 48 42 41 40 37 
   9   0   2   0   0   0   0   0   0   0   0   0   0   0   0   0   0   0   0   0   0   0   0   0   5   0   0   0   0   0   0  14 99 72 67 61 59 54 51 50 49 48 46 43 34 24 
   6   0   0   0   0   0   0   0   0   0   1   0   0   0   0   0   0   0   0   0   0   0   0   0   0   0   0   0   0  10   7  11 98 95 94 74 69 63 61 60 49 42 17 
   5   0   0   0   0   1   0   0   0   0   0   4   0   0   0   1   0   0   0   0   0   0   7   0   0   0   0   0   0   5   0  25 101 100 98 97 96 94 90 89 75 74 72 66 65 64 62 61 59 58 57 56 53 48 46 43 40 
   3   1   0   0   0   0   1   0   0   0   0   0   0   0   0   0   0  10   0   0   1   2   0   0   7   5   0   0   0   0   0  19 101 99 98 97 94 75 74 72 68 67 66 61 59 49 48 45 43 41 34 
   4   0   0   4   0   0   0   0   0   0   0   8   0   0   0   0   0   0   0   0   0   0   0   0   0   0   0   0   0   0   0  17 98 97 95 93 74 67 66 61 59 58 56 53 52 50 45 42 29 
   1   0   0   0   0   0   0   0   0   0   0   0   0   0   0   0   0   0   0   0   0   0   0   0   0   0   0   0   0   0   0  15 101 98 95 75 73 69 68 67 66 58 54 49 48 42 37 
   2   6   0   0   0   0   0   1   0   0   0   0   0   0   0   0   1   0   0   0   0   0   0   0   6   0   0   0   0   5   0  22 99 98 97 96 94 93 91 74 72 71 68 67 66 65 62 60 58 57 55 52 50 43 
   3   0   0   0   0   0   0   5   0   3   0   0   4   0   0   0   0   7   0   0   0   3   0   0   0   0   0   1   0   0   7  19 100 99 96 95 94 93 75 74 72 69 68 67 59 54 53 50 49 48 41 
   1   0   0   4   0   7   5   0   0   0   0   0   0   0   0   0   0   0   0   0   0   0   8   0   0   0   0   0   0   0   0  14 94 68 67 66 65 62 60 57 53 52 49 48 40 31 
   2   0   0   8   0   0   0   0   0   4   0   0   0   0   0   0   0   0   0   0   0   0   0   0   0   0   0   0   5   7   0  11 101 100 95 92 68 61 60 59 54 53 24 
  10   0   0   0   0   0   0   0   1   0   0   0   0   0   0   0   0   0   0   0   0   0   0   0   0   0   0   4   0   0   0  21 100 99 98 97 96 94 93 92 89 75 74 73 72 67 66 65 59 58 57 53 48 
   7   0   0   0   0   0   0   0   0   0   0   0   8   0   0   0   0   0   0   0   0   0   0   0   0   0   0   0   0   7   0  18 100 99 97 96 95 94 93 73 70 67 66 61 59 58 55 50 45 42 
   6   4   0   0   0   0   0   0   0   0   0   0   0   0   0   0   0   0   0   0   0   0   0   4   4   0   0   8   0   0   6  17 101 97 95 93 89 73 72 67 65 62 61 59 55 49 48 45 41 
   1   6   0   0   1   0   0   5   0   0   0   8   0   0   0  10   0   3   1   9   0   0   0   0   0   0   0   0   0   0   5  15 101 97 96 75 73 72 70 68 67 66 64 59 55 53 34 
   8   0   0   2   5   0   0   0   0   0   0   0   8   0   0   0   0   0   0   0   0   0   7   0   0   0   0   0   0   0   0  21 101 100 96 94 93 92 89 88 87 86 75 74 73 72 71 68 66 60 58 57 54 
   1   8   0   0   0   0   0   0   0   0   0   0   0   0   0   0   2   0   0   0   0   0   0   0   0   0   0   0   0   4   0  20 101 100 98 97 96 95 94 93 91 89 74 71 68 65 61 58 57 55 52 49 
   6   0   0   0   0   0   0   0  10   0   0   0   0   0   0   0   6   0   0   0   0   0   0   0   0   8   0   0   0   0   0  17 99 98 96 94 91 84 74 68 67 65 62 60 58 57 55 52 43 
   2   0   0   0   0   0   0   0   0   0   0   0   0   0   1   0   0   0   0   0   0   0   0   0   4   0   0   0   0   0   0  15 100 98 94 91 90 89 72 71 66 61 59 58 52 45 40 
   6   0   0   0   0   0   0   0   0   9   0   0   0   0   0   0   0   0   7   0   0   0   0   0   0   0   0   0   0   6   0  19 101 98 95 94 92 90 88 84 75 74 72 71 68 61 60 59 57 56 55 
   6   0   0   6   0   0   5   0   0   0   0   0   0   0   0   0   6   9   0   0   0   0   0   0   0   0   0   0   0   0   0  18 99 97 96 95 94 93 92 89 85 81 73 67 66 62 61 59 57 55 
   2   0   0   0   0   0   0   8   0   0   0   0   0   0   0   0   0   0   0   0   7   8   0   0   0  10   0   0   0   0   0  12 98 97 96 94 93 91 88 75 66 65 63 41 
   1   0   0   0   0   0   0   0   0   0   0   0   0   0   0   0   0   0   4   0   0   0   0   0   0   0   0   0   0   0   0  16 98 96 95 94 92 85 73 72 70 66 65 62 61 59 58 50 
   6   0   0   0   0   0   0   0   0   0   0   0   0   0   0   0   0   0   0   0   0   0   0   0   0   0   0   0   0   0   0  14 99 96 95 93 91 79 73 71 70 64 63 59 53 49 
   8   5   0   0   4   0   0   0   0   0   0   0   0   0   0  10   0   0   0   0   0   0   7   8   0   0   0   0   0   0   9  15 101 97 94 93 89 88 84 83 71 70 65 61 59 58 51 
   9   0   0   0   0   0   0   0   0   0   0   0   0   0   0   0   0   0   9   0   0   0   0   0   0   5   0   8   0   0   0  14 98 97 94 89 85 77 73 71 70 69 65 64 59 45 
   4   0   0   0   0   0   0   6   7   0   0   0   0   0   0   0   0   0   0   0   0   0   0   0   0   0   0   0   0   0   0  17 100 99 96 94 91 90 89 88 87 85 84 79 73 72 71 70 55 
   8   0   0   0   0   0   0   0   0   0   0   0   0   0   7   0   0   0   0   0   7   0   6   0   0   0   0  10   0   0   7  15 95 94 92 89 87 86 85 77 72 71 70 67 65 62 57 
   7   0   0   0   0   0   0   0   8   0   0   0   0   0   0   0   0   0   0   0   0   0   0   0   0   7   2   0   0   0   0  14 101 93 90 89 85 84 80 72 71 70 61 59 58 55 
   8   0   0   0   0   0   0   0   0   0   0   0   0   0   0   5   0   0   0   4   0   0   0   0   0   0   0   2   0   0   0  14 101 96 95 90 87 85 84 80 72 71 70 65 57 55 
   7   8   0   0   0   0   0   0   0   0   0   0   0   0   0   0   0   0   0   0   0   0   0   0   0   0   0   5   8   0   0  12 95 91 90 87 86 84 72 71 65 60 57 56 
   2   0   0   0   0   6   0   0   0   0   0   0   0   0   0   0   0   0   0   0   5   0   0   0   0   0  10   0   0   0   0  15 100 93 92 91 89 88 87 86 84 83 80 71 65 58 57 
   5   0   5   0   0   8   0   0   0   0   6   0   6   0   0   0   0   0   0   0   0  10   0   8   0   0   0   0   0   0   0  11 92 89 88 85 80 71 70 67 66 59 55 
   4   0   0   0   0   0   0   0   5   0   0   0   0   0   3   0   0   0   0   0   0   0   0   0   0   9   0   0   0   0   0  10 94 93 91 89 88 87 70 67 65 49 
   5   6   0   0   8   0   0   0   0   0   0   0   0   0   0   0   0   0   0   0   0   0   6   0   0   0   6   0   0   0   0  11 97 94 89 88 84 79 74 71 70 60 55 
   8   0   0   0   0   0   0   0   0   0   6  10   0   0   0   0   0   0   0   0   0   0   0   0   0   0   0   0   0   0   0  13 93 92 91 88 85 84 83 80 73 71 70 65 58 
   6   0   0   0   0   0   0   0   8   0   0   0   0   1   0   0   0   0   0   0   0   0   0   0   0   0   0   0   0   0   0  10 95 93 90 88 84 76 65 63 60 59 
   9   7   0   0   0   0   8   0   0   0   0   4   0  10   0   8   0   0   0   0   0   0   0   0   0   0   0   0   0   0   7  15 99 93 92 88 86 85 84 83 82 81 80 79 78 77 70 
   2   0   0   0   0   0   7   0   0   0   0   0   0   0   0   0   0   5   0   5   0   0   8   8   0   3   0   0   0   0   6  11 90 87 86 85 83 80 79 71 70 58 57 
   8   0  10   0   8   0   0   0   6   0   0   3   0   0   0   0   0   0   0   0   0   0   0   6   0   0   0   0   0   0   8  11 91 89 87 86 85 84 79 77 72 71 57 
   3   0   0   0   0   0   0   0   0  10   0   0   0   0   0   0   5   0   0   0   0   0   0   0   0   0   0   0   0   0   0  11 95 88 87 83 82 81 80 79 77 76 73 
   7   0   0   0   0   0   0   0   0   0   7   0   0   0   0   0   0   0   0   0   0   0   0   0   0   0   0   0   0   0   0   8 92 89 86 84 83 80 65 57 
   9   0   3   0   5   0   6   0   0   0   0   0   0   6   0   0   0   0   0   0   0   0   0  10   0   0   0   0   0   0   0   6 88 86 84 79 60 57 
   2   0   0   5   0   0   0   7   0   6   0   0   0   0  10   4   0   0   6   0   0   0   0   0   0   0   0   0   0   8   0   8 91 85 79 78 77 76 71 60 
   5   0   0   0   0   0   0   0   0   0   4   0   0   0   0   0   7   0   0   0   0   0   0   0   0   0   0   0   0   0   0   8 93 84 83 82 80 79 70 58 
   9   0   0   0   4   0   0   0   0   0   0   8   0   0   0   0   0   5   0   0   0   0   0   0   0   0   0   0   0   0   7   8 91 84 82 80 78 77 71 70 
   7   6   0   0   0   0   0   0   0   0   0   0   0   0   0   0   7   0   0   0   3   0   0   0   0   0   0   0   0   0   0   9 92 90 85 84 81 80 78 77 76 
   9   0   0   0   0   5   0   0   0   0   0   0   0   0   0   0   0   0   0   7   0   0   0   0   0   0   0   0   0  10   0   9 89 87 82 81 80 79 78 77 76 
  10  10   0   7   0   0   0   5   0   0   0   0   0   0   0   0   0   0   0   0   0   0   5   7   0   0   0   0   0   0   0   8 95 91 87 85 80 79 77 76 
   9   0   0   0   0   0   0   0   0   0   0   7   9   0   0   0   0   0   0   0   9  10   0   0   0   0   0   0   0   0   0   7 92 83 81 80 79 77 70 
   2   0   0   7   0   0   0   0   0   0   0   0   0   0   0   0   0   0   0   0   0   7   0   0   0   0  10   6   0   0   0   7 88 87 86 85 83 82 78 
   3   0   0   0   0   0   6   0   0   0   0   0   0   0   0   0   0   0   0   0   0   0   0   0   0   0   0   0   8   0   0   5 91 90 77 76 65 
   5   0   0  10   0   0   9   0   0   0   0   4   0   0   0   0   0   0   0   0   0   0   0   0   0   0   0   0   6   0   0   5 86 83 82 78 77 
   9   0   0   6   0   0   0   0   3   5   0   0   0   8   0   0   0   0   0   0   0   0   0   0   0   0   5   0   0   6   0   4 85 79 77 70 
   1   0   0   0   0   7   8   7   0   0   0   0   0   0   0   0   0   0   0   0   0   0   0   0   0   0   6   0   0   0   0   3 82 78 76 
   7   0   8   0   0   0   0   0   0   0   0   0   0   0   0   0   0   0   0   0   0   0   0   0   0   6   0   7   0   0   0   3 78 77 76 
  10   0   0   0   0   0   0   0   0   6   7   0   0   0   0   0   6   0   0   0   0   0   0   0   0   9   9   0   0   0   6   3 87 86 82 
   8   0   0   0   0   0   0   0   0   0   0   0   0   0   0   0   0   0   0   0   0   0   0   0   0   0   0   0   0   0   0   3 83 81 80 
   3   0   0   0   0   0   6   1   0   0   0   0   0   0   0   0   0   4   5   0   0   6   0   0   0   0   7   6   7   8   0   3 79 77 76 
   4   0   0   0   0   0   5   7   8   0   0   0   0   0   0   0   0   4   0   0   6   0   0   0   0   0   6   0   0   0   0   3 88 80 79 
   2   0   9   0   0   0   0   0   0   0   0   0   0   0   0   0   0   0   0   0   0   0   0   0   0   0   8   0   0   0   0   3 89 80 77 
   2   0   0   0   0   0   0   0   5   0   0   0   0   5   0   0   0   0   0   0   0   0   0   0   0   0   0   0   4   0   6   3 84 80 78 
   3   0   0   0   9   0   0   0   0   0   0   6   0   0   0   0   0   8   0   0   0   0   0   6   0   0   0   0   0   4   0   2 82 79 
   4   0   0   0   0   0   0   0   0   0   9   0   0   0   0   6   0   0   0   0   0   0   0   4   0   0   0   0   0   0   0   2 84 78 
   5   0   0   0   0   0   0   0   0   0   0   0   0   0   5   0   0   0   0   0   0   0   0   0   0   0   2   0   0   0   0   2 90 78 
   3   0   7   0   0   0   0   0   0   0   0   0   0   0   0   0   0   0   0   0   5   0   0   0   0   0   0   0   0   0   6   2 81 77 
   4   0   0   0   0   0   0   0   0   0   0   3   0   0   0   7   0   0   0   0   0   0   0   0   0   0   0   0   0   0   3   2 81 79 
   1   0   0   6   0   6   0   0   0   0   0   0   0   0   0   0   0   0   0   0   0   0   0   0   6   0   0   0   0   0   0   1 76 
   5   0   0   0   0   4   0   0   0   0   0   0   0   6   0   0   0   8   0   6   8   0   0   0   0   3   0   2   5   0   0   1 81 
   7   0   0   0   0   0   0  10   0   0   0   0   0   6   0   0   0   0   0   0   0   0   0   0   7   0   0   0   0   0   0   1 83 
   6   0   7   0   0   0   0   0   0   0   6   0   6   0   0   0   0   0   0   0   0   0   0   0   0   0   5   0   0   0   0   1 78 
   1   0   0   0   0   6   0   0   0   3   0   0   0   0   0   0   0   0   0   0   0   0   0   0   7   0   0   0   0   0   0   1 85 
   4   5   0   0   0   0   0   0   0   0   0   0   5   0   0   0   0   0   0   0   0   0   0   0   0   0   0   0   0   0   0   1 81 
   7   0   0   0   0   0   0   0   0   0   0   0   0   0   0   0   0   0   0   7   0   9   0   0   0   0   0   0   5   0   0   1 102
   4   0   0   0   0   0   0   0   0   0   5   0   7   0   0   0   9   0   4   0   0   0   0   0   0   0   0   0   0   0   0   1 102
   7   0   0   5   0   0   0   0   0   0   0   0   0   0   0   0   9   0   0   0   0   0   0   0   0   0   0   0   0   0   0   1 102
   3   0   0   0   9   0   0   0   0   0   0   0   0   0   0   0   0   0   0   0   0   0   0   4   0   0   0   0   0   6   6   1 102
   3   5   6   0   0   0   0   0   0   0   0   0   0   0   0   0   0   0   0   0   0   0   0   0   0   5   0   0   0   0   0   1 102
   5   0   4   0   0   0   0   0   0   6   0   0   0   0   0   0   3   0   0   0   0   2   0   0   0   0   0   0   0   0   0   1 102
   7   0   0   0   0   0   0   0   4   5   0   0   0   0   0   3   0   0   0   0   0   0   0   0   0   0   0   0   0   0   0   1 102
   6   0   7   0   0   0   0   0   0   0   9   0   0   0   0   0   9   0   0   0   0   0   0   3   0   0   0   0   0   0   8   1 102
   6   0   0   0   0   0   0   0   0   0   7   0   0   0   0   0   3   0   0   0   0   0   0   9   0   0   0   0   0   0   0   1 102
   6   0   0   0   0   0   0   9   0   0   0   0   0   0   0   0   0   0   0   0   0   0   0   0   0   8   0   0   6   0   0   1 102
   8   0   0   0   0   7   6   0   6   0   0   0   0   0   7   0   0   0   0   9   8   0   0   0   0   7   0   0   0   0   0   1 102
  10   0   0   0   0   0   0   0   0   0   6   0   0   0   4   0   0   0   7   0   7   0   0   0   0   0   0   0   0   0   0   1 102
   4   0   0   0   7   0   0   0   0   7   0   0   0   0   0   0   0   0   0   0   0   0   0   0   0   0   0   0   0   0   4   1 102
   4   0   0   8   0   0   0   0   0   0   3   0   0   0   0   0  10   0   0   0   0   0   0   0   0   0   0   6   8   0   0   1 102
   7   3   0   0   0   7   0   0   0   0   0   0   0   0   0   0   0   5   3   0   0   3   0   0   0   0   0   9   0   7   0   1 102
  10   0   0   0   0   0   0   5   7   8   0   0   0   0   0   0   0   0   0   0   0   0   0   0   7   0   0   0   3   0   0   1 102
   6   0   0   3   0   0   6   8   0   0   0   0   0   8   0   0   0   0   0   0   0   0   0   0   0   0   3   0   0   4   0   1 102
   2   0   0   0   0   0   0   0   0   0   0   0   0   0   0   0   0   0   0   0   6   0   0   0   0   0   0   0   0   4   0   1 102
   8   0   0   0   0   0   0   0   0   0   0   0   0   5   0   0   0   0   0   0   0   0   0   0   0   0   7   0  10   0   6   1 102
   9   0   0   9   0   0   0   0   0   0   0   0   0   0   0   6   5   7   0   0   0   0   0   0   0   0   0   0   0   0   0   1 102
  10   0   0   0   0   0   0   0   0   0   0   0   0   0   0   0   0   0   0   0   0   0   5   0   8   2   4   9   0   0   0   1 102
  10   6   4   0   0   0   0   0   0   0   0   0   0   0   0   0   0   0   0   0   0   0   0   0   0   0   0  10   8   0   0   1 102
   7   0   0   0   0   8   0   6   0   0   0   0   0   5   0   0   0   0  10   0   0   0   0   0   0   7   0   0   0   0   0   1 102
   3   0   0   0   0   0   0   0   0   0   0   7   0   0   9   0   0   0  10   0   0   0   0   0   0   0   0   3   6   0   5   1 102
   4  10   0   0   0   0   0   0   0   6   8   0   0   0   0   0   8   0   0   0   0   0   0   6  10   0   0   0   0   0   0   1 102
   6   0   0   0   0   0   0   0   0   0   0   0   0   0   8   0   0   8   0   0   0   0   0   0   0   0   0   0   0   0   0   1 102
   0   0   0   0   0   0   0   0   0   0   0   0   0   0   0   0   0   0   0   0   0   0   0   0   0   0   0   0   0   0   0   0 
